NAME: Random_80_1
ELLAPSED_TIME_(ms): 1
TOUR_SIZE: 2184.5283
TOUR_SECTION
0
13
33
14
69
35
48
73
17
42
23
65
25
6
56
10
71
68
72
18
57
74
16
43
19
41
55
7
28
30
51
59
8
50
79
1
24
3
52
70
37
11
47
76
66
61
58
44
62
64
36
78
31
29
39
63
60
26
34
77
20
22
9
21
32
49
38
46
27
40
5
45
75
53
2
12
15
67
4
54
0
EOF
